(set-option :print-success false)
(set-logic QF_UF)
(declare-sort x70 0)
(declare-sort x55 0)
(declare-fun x71 (x55 x55) x55)
(declare-fun x68 () x55)
(declare-fun x153 () x55)
(declare-fun x24 (x55 x55) x55)
(declare-fun x146 () x55)
(declare-fun x76 () x55)
(declare-fun x1 () x55)
(assert (let ((x151 (x24 x1 x153)) (x96 (x24 x146 x146)) (x14 (x24 x1 x1)) (x149 (x24 x1 x76)) (x54 (x24 x1 x68)) (x83 (x24 x76 x76)) (x44 (x24 x68 x1)) (x109 (x24 x146 x153)) (x26 (x24 x146 x1)) (x107 (x24 x153 x1)) (x45 (x24 x1 x146)) (x147 (x24 x153 x146)) (x125 (x24 x76 x68)) (x30 (x24 x68 x146)) (x59 (x24 x153 x76)) (x143 (x24 x76 x1)) (x20 (x24 x68 x76)) (x21 (x24 x153 x153)) (x130 (x24 x146 x68)) (x134 (x24 x68 x68)) (x8 (x24 x76 x146)) (x7 (x24 x76 x153)) (x2 (x24 x146 x76)) (x43 (x24 x68 x153)) (x115 (x24 x153 x68))) (let ((x41 (= x153 x151)) (x34 (= x76 x26)) (x132 (= x146 x8)) (x15 (= x30 x76)) (x133 (= x130 x1)) (x159 (= x76 x107)) (x66 (= x20 x146)) (x51 (= x1 x30)) (x122 (= x54 x1)) (x67 (= x44 x146)) (x82 (= x68 x96)) (x81 (= x1 x59)) (x131 (= x151 x146)) (x64 (= x146 x149)) (x110 (= x2 x68)) (x137 (= x83 x68)) (x37 (= x14 x1)) (x95 (= x96 x146)) (x148 (= x146 x83)) (x89 (= x1 x151)) (x52 (= x151 x68)) (x88 (= x109 x146)) (x63 (= x43 x76)) (x61 (= x8 x1)) (x124 (= x14 x153)) (x22 (= x143 x76)) (x50 (= x68 x107)) (x156 (= x153 x130)) (x120 (= x68 x147)) (x92 (= x149 x76)) (x111 (= x68 x8)) (x94 (= x54 x76)) (x3 (= x146 x30)) (x152 (= x153 x7)) (x118 (= x1 x7)) (x99 (= x54 x68)) (x75 (= x153 x8)) (x129 (= x149 x1)) (x57 (= x68 x125)) (x136 (= x7 x146)) (x38 (= x43 x1)) (x56 (= x68 x134)) (x11 (= x21 x146)) (x145 (= x68 x20)) (x10 (= x1 x115)) (x135 (= x76 x2)) (x25 (= x1 x21)) (x127 (= x45 x68)) (x100 (= x153 x134)) (x72 (= x153 x149)) (x17 (= x146 x14)) (x87 (= x96 x1)) (x69 (= x26 x1)) (x9 (= x76 x59)) (x73 (= x54 x153)) (x33 (= x59 x68)) (x85 (= x151 x76)) (x79 (= x21 x76)) (x19 (= x1 x20)) (x16 (= x115 x68)) (x139 (= x143 x146)) (x42 (= x125 x153)) (x102 (= x109 x1)) (x86 (= x68 x21)) (x77 (= x54 x146)) (x58 (= x153 x20)) (x65 (= x109 x153)) (x104 (= x125 x76)) (x53 (= x76 x8)) (x47 (= x143 x153)) (x6 (= x7 x76)) (x114 (= x107 x146)) (x113 (= x149 x68)) (x140 (= x2 x153)) (x5 (= x146 x26)) (x123 (= x76 x14)) (x31 (= x153 x115)) (x18 (= x153 x30)) (x112 (= x115 x76)) (x108 (= x153 x43)) (x74 (= x43 x146)) (x157 (= x146 x59)) (x121 (= x125 x146)) (x128 (= x153 x83)) (x27 (= x1 x125)) (x62 (= x43 x68)) (x117 (= x68 x44)) (x35 (= x107 x153)) (x60 (= x68 x130)) (x12 (= x134 x76)) (x36 (= x68 x14)) (x98 (= x109 x76)) (x39 (= x76 x96)) (x119 (= x147 x1)) (x103 (= x26 x153)) (x155 (= x146 x134)) (x116 (= x44 x76)) (x32 (= x45 x1)) (x48 (= x30 x68)) (x154 (= x143 x68)) (x28 (= x147 x153)) (x101 (= x1 x143)) (x46 (= x76 x130)) (x150 (= x107 x1)) (x141 (= x109 x68)) (x29 (= x1 x134)) (x144 (= x146 x115)) (x106 (= x21 x153)) (x23 (= x68 x7)) (x126 (= x153 x44)) (x91 (= x76 x147)) (x84 (= x26 x68)) (x80 (= x146 x2)) (x40 (= x146 x130)) (x142 (= x76 x83)) (x138 (= x146 x147)) (x78 (= x59 x153)) (x93 (= x76 x45)) (x97 (= x1 x44)) (x158 (= x20 x76)) (x49 (= x146 x45)) (x13 (= x2 x1)) (x4 (= x96 x153)) (x105 (= x153 x45)) (x90 (= x83 x1))) (and (or (or (or (or (and x25 (not x25)) (or (and (not x118) x81) (or (and (not x38) x10) (and x119 (not x102))))) (and (not x89) x150)) (or (or (or (and x97 (not x122)) (or (and x38 (not x10)) (or (and (not x27) x19) (or (and (not x29) x29) (and (not x133) x51))))) (or (or (or (and (not x61) x13) (or (and x133 (not x51)) (and x87 (not x87)))) (and x102 (not x119))) (and x69 (not x32)))) (or (and x101 (not x129)) (or (or (and x90 (not x90)) (or (and x27 (not x19)) (and (not x13) x61))) (and (not x81) x118))))) (or (or (and (not x150) x89) (or (and (not x101) x129) (or (and (not x97) x122) (and (not x69) x32)))) (and (not x37) x37))) (and (and (and (or (or (or (and (not x114) x131) (or (and (not x139) x64) (or (and x49 (not x5)) (and (not x67) x77)))) (and x17 (not x17))) (or (or (and x114 (not x131)) (or (or (and (not x136) x157) (or (and x138 (not x88)) (and (not x74) x144))) (and x11 (not x11)))) (or (or (or (or (and x74 (not x144)) (or (or (and x155 (not x155)) (and (not x40) x3)) (and (not x121) x66))) (and (not x77) x67)) (or (or (or (and x80 (not x132)) (or (and (not x95) x95) (and (not x3) x40))) (and (not x138) x88)) (and (not x49) x5))) (or (or (and (not x157) x136) (or (or (and (not x66) x121) (and x132 (not x80))) (and x148 (not x148)))) (and x139 (not x64)))))) (or (or (or (or (or (or (and x120 (not x141)) (and (not x62) x16)) (and x33 (not x23))) (and x86 (not x86))) (and (not x52) x50)) (or (or (or (and x84 (not x127)) (or (and (not x120) x141) (or (or (and x60 (not x48)) (and x82 (not x82))) (and (not x111) x110)))) (or (or (or (or (and x56 (not x56)) (and (not x60) x48)) (and (not x57) x145)) (and (not x16) x62)) (and (not x99) x117))) (or (or (and x23 (not x33)) (or (and (not x137) x137) (or (and x57 (not x145)) (and x111 (not x110))))) (and x154 (not x113))))) (or (and x36 (not x36)) (or (or (and (not x154) x113) (or (and x127 (not x84)) (and (not x117) x99))) (and x52 (not x50)))))) (or (or (or (or (or (or (or (and (not x158) x104) (and (not x135) x53)) (and x142 (not x142))) (and x6 (not x9))) (and (not x92) x22)) (or (or (and x116 (not x94)) (or (and x63 (not x112)) (or (or (and x15 (not x46)) (and (not x12) x12)) (and x158 (not x104))))) (or (or (and (not x91) x98) (or (or (and (not x15) x46) (and (not x39) x39)) (and x135 (not x53)))) (and (not x93) x34)))) (or (or (and x79 (not x79)) (or (and x9 (not x6)) (or (and (not x98) x91) (and x112 (not x63))))) (and (not x85) x159))) (or (and (not x123) x123) (or (and (not x159) x85) (or (and x92 (not x22)) (or (and x93 (not x34)) (and (not x116) x94))))))) (or (or (and (not x124) x124) (or (and (not x35) x41) (or (and x72 (not x47)) (or (and (not x126) x73) (and (not x103) x105))))) (or (or (or (or (or (and (not x108) x31) (and (not x65) x28)) (and x78 (not x152))) (and (not x106) x106)) (and (not x41) x35)) (or (or (or (and (not x105) x103) (or (and (not x28) x65) (or (and x140 (not x75)) (or (and x156 (not x18)) (and (not x4) x4))))) (or (and (not x73) x126) (or (or (and (not x42) x58) (or (and x100 (not x100)) (and (not x156) x18))) (and x108 (not x31))))) (or (and x47 (not x72)) (or (and (not x78) x152) (or (or (and x42 (not x58)) (and x75 (not x140))) (and x128 (not x128)))))))))))))
(assert (let ((x131 (x24 x1 x153)) (x66 (x24 x68 x76)) (x49 (x24 x1 x146)) (x148 (= x76 (x24 x76 x76))) (x139 (x24 x76 x1)) (x95 (= x146 (x24 x146 x146))) (x114 (x24 x153 x1)) (x80 (x24 x146 x76)) (x17 (= x1 (x24 x1 x1))) (x132 (x24 x76 x146)) (x64 (x24 x1 x76)) (x11 (= x153 (x24 x153 x153))) (x88 (x24 x146 x153)) (x144 (x24 x153 x68)) (x5 (x24 x146 x1)) (x155 (= (x24 x68 x68) x68)) (x121 (x24 x76 x68)) (x3 (x24 x68 x146)) (x77 (x24 x1 x68)) (x136 (x24 x76 x153)) (x138 (x24 x153 x146)) (x74 (x24 x68 x153)) (x67 (x24 x68 x1)) (x40 (x24 x146 x68)) (x157 (x24 x153 x76))) (or (or (and x17 x17) (or (or (or (and (= x1 x77) (= x67 x1)) (and (= x5 x1) (= x1 x49))) (and (= x139 x1) (= x64 x1))) (and (= x114 x1) (= x131 x1)))) (or (or (and (= x114 x153) (= x131 x153)) (or (and x11 x11) (or (or (and (= x88 x153) (= x153 x138)) (and (= x74 x153) (= x144 x153))) (and (= x153 x136) (= x153 x157))))) (or (or (or (and (= x49 x146) (= x5 x146)) (or (and (= x138 x146) (= x88 x146)) (or (or (and x95 x95) (and (= x146 x3) (= x146 x40))) (and (= x146 x80) (= x132 x146))))) (or (and (= x67 x68) (= x77 x68)) (or (and (= x68 x74) (= x68 x144)) (or (or (and x155 x155) (and (= x68 x3) (= x40 x68))) (and (= x66 x68) (= x68 x121)))))) (or (and (= x76 x64) (= x139 x76)) (or (and (= x157 x76) (= x76 x136)) (or (and x148 x148) (or (and (= x132 x76) (= x76 x80)) (and (= x76 x66) (= x121 x76)))))))))))
(assert (let ((x144 (x24 x76 x68)) (x5 (x24 x153 x76)) (x66 (x24 x68 x76)) (x49 (x24 x153 x68)) (x67 (x24 x153 x1)) (x132 (x24 x146 x1)) (x138 (x24 x68 x1)) (x74 (x24 x76 x76)) (x64 (x24 x1 x146)) (x88 (x24 x76 x146)) (x155 (x24 x146 x153)) (x157 (x24 x76 x153)) (x77 (x24 x153 x153)) (x139 (x24 x1 x68)) (x11 (x24 x153 x146)) (x114 (x24 x1 x153)) (x136 (x24 x76 x1)) (x95 (x24 x146 x146)) (x80 (x24 x68 x146)) (x148 (x24 x68 x153)) (x131 (x24 x1 x76)) (x40 (x24 x146 x76)) (x121 (x24 x68 x68)) (x3 (x24 x146 x68)) (x17 (x24 x1 x1))) (and (and (and (and (and (and (and (and (or (or (or (= x95 x76) (or (= x95 x68) (= x95 x146))) (= x153 x95)) (= x95 x1)) (or (= x3 x1) (or (= x153 x3) (or (= x3 x76) (or (= x3 x146) (= x68 x3)))))) (or (or (or (= x40 x76) (or (= x40 x68) (= x146 x40))) (= x153 x40)) (= x1 x40))) (or (or (or (= x76 x155) (or (= x155 x146) (= x155 x68))) (= x155 x153)) (= x155 x1))) (or (= x132 x1) (or (or (= x76 x132) (or (= x68 x132) (= x146 x132))) (= x132 x153)))) (and (or (= x138 x1) (or (= x153 x138) (or (or (= x138 x68) (= x138 x146)) (= x76 x138)))) (and (and (or (or (= x153 x66) (or (= x76 x66) (or (= x66 x68) (= x146 x66)))) (= x1 x66)) (and (or (= x1 x121) (or (= x153 x121) (or (= x76 x121) (or (= x121 x146) (= x121 x68))))) (or (= x80 x1) (or (= x80 x153) (or (= x80 x76) (or (= x80 x146) (= x68 x80))))))) (or (or (= x153 x148) (or (= x76 x148) (or (= x68 x148) (= x146 x148)))) (= x148 x1))))) (and (or (or (or (= x76 x136) (or (= x146 x136) (= x136 x68))) (= x136 x153)) (= x1 x136)) (and (or (= x157 x1) (or (= x153 x157) (or (= x157 x76) (or (= x68 x157) (= x146 x157))))) (and (or (or (= x153 x74) (or (or (= x74 x68) (= x146 x74)) (= x74 x76))) (= x74 x1)) (and (or (or (or (or (= x144 x68) (= x144 x146)) (= x76 x144)) (= x144 x153)) (= x1 x144)) (or (= x1 x88) (or (or (= x88 x76) (or (= x68 x88) (= x88 x146))) (= x153 x88)))))))) (and (and (and (and (or (or (= x153 x49) (or (= x76 x49) (or (= x49 x146) (= x68 x49)))) (= x49 x1)) (or (or (= x153 x11) (or (= x11 x76) (or (= x11 x146) (= x11 x68)))) (= x1 x11))) (or (= x5 x1) (or (= x5 x153) (or (or (= x5 x68) (= x146 x5)) (= x76 x5))))) (or (= x77 x1) (or (or (or (= x77 x68) (= x77 x146)) (= x76 x77)) (= x77 x153)))) (or (= x67 x1) (or (or (= x76 x67) (or (= x67 x146) (= x68 x67))) (= x153 x67))))) (and (and (and (or (or (or (= x76 x131) (or (= x68 x131) (= x146 x131))) (= x153 x131)) (= x1 x131)) (and (or (or (= x153 x64) (or (= x64 x76) (or (= x64 x146) (= x64 x68)))) (= x1 x64)) (or (or (= x153 x139) (or (or (= x139 x146) (= x68 x139)) (= x76 x139))) (= x1 x139)))) (or (= x114 x1) (or (= x153 x114) (or (= x114 x76) (or (= x68 x114) (= x146 x114)))))) (or (= x17 x1) (or (or (or (= x68 x17) (= x17 x146)) (= x17 x76)) (= x153 x17)))))))
(assert (or (or (or (or (and (not (= x1 (x24 x146 (x24 x146 x1)))) (and (and (and (not (= (x24 x146 (x24 x146 x146)) x146)) (not (= x68 (x24 x146 (x24 x146 x68))))) (not (= x76 (x24 x146 (x24 x146 x76))))) (not (= x153 (x24 x146 (x24 x146 x153)))))) (and (and (and (and (not (= (x24 x68 (x24 x68 x68)) x68)) (not (= (x24 x68 (x24 x68 x146)) x146))) (not (= (x24 x68 (x24 x68 x76)) x76))) (not (= (x24 x68 (x24 x68 x153)) x153))) (not (= x1 (x24 x68 (x24 x68 x1)))))) (and (and (not (= x153 (x24 x76 (x24 x76 x153)))) (and (not (= x76 (x24 x76 (x24 x76 x76)))) (and (not (= x146 (x24 x76 (x24 x76 x146)))) (not (= x68 (x24 x76 (x24 x76 x68))))))) (not (= x1 (x24 x76 (x24 x76 x1)))))) (and (and (not (= (x24 x153 (x24 x153 x153)) x153)) (and (not (= x76 (x24 x153 (x24 x153 x76)))) (and (not (= x146 (x24 x153 (x24 x153 x146)))) (not (= (x24 x153 (x24 x153 x68)) x68))))) (not (= (x24 x153 (x24 x153 x1)) x1)))) (and (not (= x1 (x24 x1 (x24 x1 x1)))) (and (and (and (not (= (x24 x1 (x24 x1 x68)) x68)) (not (= x146 (x24 x1 (x24 x1 x146))))) (not (= (x24 x1 (x24 x1 x76)) x76))) (not (= (x24 x1 (x24 x1 x153)) x153))))))
(assert (and (not (= (x24 x1 x1) x1)) (and (and (not (= (x24 x76 x76) x76)) (and (not (= (x24 x68 x68) x68)) (not (= x146 (x24 x146 x146))))) (not (= x153 (x24 x153 x153))))))
(assert (or (= (x24 x1 (x24 x1 x1)) x1) (or (= x153 (x24 x153 (x24 x153 x153))) (or (or (= (x24 x146 (x24 x146 x146)) x146) (= x68 (x24 x68 (x24 x68 x68)))) (= x76 (x24 x76 (x24 x76 x76)))))))
(assert (let ((x139 (x24 x68 x1)) (x82 (x24 x1 x68)) (x158 (x24 x1 x153)) (x103 (x24 x1 x1)) (x132 (x24 x146 x153)) (x80 (x24 x146 x1)) (x44 (x24 x76 x76)) (x148 (x24 x76 x146)) (x40 (x24 x146 x68)) (x67 (x24 x68 x76)) (x3 (x24 x146 x146)) (x64 (x24 x68 x153)) (x155 (x24 x146 x76)) (x138 (x24 x153 x146)) (x15 (x24 x153 x153)) (x46 (x24 x153 x1)) (x83 (x24 x153 x76)) (x137 (x24 x1 x76)) (x111 (x24 x76 x1)) (x66 (x24 x68 x146)) (x88 (x24 x1 x146)) (x96 (x24 x153 x68)) (x77 (x24 x68 x68)) (x54 (x24 x76 x153)) (x17 (x24 x76 x68))) (let ((x147 (= x153 x77)) (x156 (= x1 x54)) (x23 (= x153 x44)) (x45 (= x1 x40)) (x11 (= x40 x146)) (x32 (= x88 x1)) (x29 (= x139 x76)) (x20 (= x146 x67)) (x7 (= x148 x76)) (x99 (= x96 x146)) (x38 (= x139 x153)) (x41 (= x68 x103)) (x31 (= x146 x46)) (x61 (= x111 x76)) (x14 (= x138 x68)) (x33 (= x153 x67)) (x92 (= x153 x54)) (x119 (= x153 x137)) (x100 (= x1 x15)) (x13 (= x76 x46)) (x104 (= x68 x15)) (x145 (= x68 x44)) (x18 (= x1 x64)) (x81 (= x153 x111)) (x57 (= x67 x68)) (x135 (= x54 x68)) (x105 (= x68 x158)) (x126 (= x68 x139)) (x63 (= x64 x76)) (x114 (= x77 x68)) (x113 (= x132 x146)) (x65 (= x111 x146)) (x2 (= x76 x77)) (x116 (= x64 x153)) (x93 (= x96 x153)) (x10 (= x80 x153)) (x86 (= x17 x1)) (x117 (= x146 x83)) (x56 (= x155 x146)) (x106 (= x68 x137)) (x52 (= x54 x146)) (x47 (= x46 x68)) (x95 (= x146 x3)) (x152 (= x82 x68)) (x150 (= x46 x1)) (x73 (= x80 x68)) (x108 (= x146 x103)) (x60 (= x146 x148)) (x16 (= x153 x17)) (x69 (= x82 x1)) (x151 (= x67 x1)) (x72 (= x68 x111)) (x143 (= x76 x155)) (x127 (= x44 x1)) (x98 (= x76 x83)) (x6 (= x15 x76)) (x22 (= x153 x15)) (x136 (= x66 x146)) (x94 (= x153 x132)) (x9 (= x54 x76)) (x49 (= x77 x146)) (x42 (= x137 x146)) (x149 (= x67 x76)) (x78 (= x88 x68)) (x134 (= x17 x146)) (x30 (= x40 x76)) (x50 (= x146 x15)) (x91 (= x96 x76)) (x144 (= x3 x76)) (x101 (= x139 x1)) (x107 (= x155 x1)) (x25 (= x153 x103)) (x74 (= x153 x3)) (x112 (= x132 x76)) (x75 (= x146 x88)) (x79 (= x138 x153)) (x124 (= x76 x82)) (x58 (= x158 x146)) (x131 (= x68 x40)) (x154 (= x146 x64)) (x36 (= x96 x68)) (x34 (= x153 x83)) (x130 (= x76 x66)) (x142 (= x76 x138)) (x90 (= x82 x153)) (x123 (= x83 x1)) (x157 (= x1 x3)) (x140 (= x146 x82)) (x85 (= x1 x138)) (x51 (= x158 x76)) (x89 (= x1 x111)) (x19 (= x153 x88)) (x115 (= x68 x17)) (x133 (= x76 x80)) (x43 (= x148 x68)) (x125 (= x44 x146)) (x129 (= x80 x1)) (x110 (= x155 x68)) (x141 (= x148 x153)) (x121 (= x68 x3)) (x28 (= x139 x146)) (x62 (= x155 x153)) (x26 (= x1 x66)) (x128 (= x146 x80)) (x120 (= x44 x76)) (x159 (= x1 x96)) (x39 (= x68 x83)) (x12 (= x132 x68)) (x102 (= x158 x153)) (x37 (= x1 x103)) (x97 (= x1 x158)) (x27 (= x103 x76)) (x8 (= x153 x66)) (x35 (= x76 x88)) (x87 (= x76 x137)) (x118 (= x153 x46)) (x5 (= x68 x66)) (x59 (= x17 x76)) (x48 (= x77 x1)) (x122 (= x1 x137)) (x21 (= x148 x1)) (x84 (= x146 x138)) (x4 (= x132 x1)) (x53 (= x64 x68)) (x109 (= x40 x153))) (and (and (and (and (and (and (and (or (or (or x141 (or x8 x74)) x79) x19) (or (or (or x62 (or x109 x74)) x94) x10)) (and (and (or (or x112 (or (or x30 x144) x143)) x133) (or (or x142 (or (or x144 x130) x7)) x35)) (and (and (or x73 (or x12 (or (or x121 x131) x110))) (or (or (or (or x121 x5) x43) x14) x78)) (and (or (or x84 (or x60 (or x136 x95))) x75) (or (or x113 (or (or x11 x95) x56)) x128))))) (and (or (or (or x107 (or x157 x45)) x4) x129) (or (or x85 (or (or x26 x157) x21)) x32))) (and (and (or (or x18 (or x151 (or x48 x26))) x101) (or (or (or (or x45 x48) x86) x159) x69)) (and (and (and (or (or x91 (or (or x2 x30) x59)) x124) (or (or (or (or x2 x130) x149) x63) x29)) (and (and (or (or (or x134 (or x11 x49)) x99) x140) (or (or (or x20 (or x136 x49)) x154) x28)) (and (or x126 (or x53 (or x57 (or x114 x5)))) (or x152 (or (or x115 (or x114 x131)) x36))))) (and (or x38 (or x116 (or (or x8 x147) x33))) (or x90 (or (or (or x147 x109) x16) x93)))))) (and (and (or (or (or x127 (or x151 x107)) x123) x122) (or (or x156 (or (or x86 x21) x127)) x89)) (and (and (and (and (or (or x39 (or (or x110 x57) x145)) x106) (or (or (or x145 (or x43 x115)) x135) x72)) (and (or x42 (or (or (or x56 x20) x125) x117)) (or (or (or (or x134 x60) x125) x52) x65))) (and (or x61 (or (or (or x59 x7) x120) x9)) (or (or x98 (or (or x143 x149) x120)) x87))) (and (or (or (or (or x62 x33) x23) x34) x119) (or (or (or x23 (or x141 x16)) x92) x81))))) (and (and (or (or (or x123 (or x159 x85)) x100) x150) (or x97 (or x100 (or (or x4 x18) x156)))) (and (and (and (or x13 (or x6 (or x98 (or x91 x142)))) (or (or (or x9 (or x112 x63)) x6) x51)) (and (and (or x47 (or x104 (or (or x14 x36) x39))) (or (or x104 (or x135 (or x53 x12))) x105)) (and (or x31 (or x50 (or x117 (or x84 x99)))) (or x58 (or (or x52 (or x113 x154)) x50))))) (and (or (or (or x34 (or x93 x79)) x22) x118) (or x102 (or x22 (or x92 (or x94 x116)))))))) (and (and (or x37 (or (or (or x101 x129) x89) x150)) (or x37 (or x97 (or (or x32 x69) x122)))) (and (and (or (or (or (or x19 x90) x119) x102) x25) (or x25 (or x118 (or (or x10 x38) x81)))) (and (and (or x27 (or (or (or x29 x133) x61) x13)) (or (or (or (or x124 x35) x87) x51) x27)) (and (and (or x108 (or (or (or x128 x28) x65) x31)) (or x108 (or (or x42 (or x140 x75)) x58))) (and (or (or (or (or x126 x73) x72) x47) x41) (or (or x105 (or x106 (or x78 x152))) x41))))))))))
(assert (let ((x132 (x24 x1 x1)) (x155 (x24 x153 x153)) (x40 (x24 x76 x76)) (x95 (x24 x146 x146)) (x3 (x24 x68 x68))) (or (= x1 (x24 x132 x132)) (or (or (or (= x68 (x24 x3 x3)) (= x146 (x24 x95 x95))) (= x76 (x24 x40 x40))) (= (x24 x155 x155) x153)))))
(assert (let ((x45 (x24 x1 x146)) (x30 (x24 x68 x146)) (x149 (x24 x1 x76)) (x143 (x24 x76 x1)) (x83 (x24 x76 x76)) (x109 (x24 x146 x153)) (x125 (x24 x76 x68)) (x96 (x24 x146 x146)) (x2 (x24 x146 x76)) (x43 (x24 x68 x153)) (x21 (x24 x153 x153)) (x44 (x24 x68 x1)) (x8 (x24 x76 x146)) (x20 (x24 x68 x76)) (x26 (x24 x146 x1)) (x130 (x24 x146 x68)) (x147 (x24 x153 x146)) (x151 (x24 x1 x153)) (x7 (x24 x76 x153)) (x115 (x24 x153 x68)) (x134 (x24 x68 x68)) (x54 (x24 x1 x68)) (x107 (x24 x153 x1)) (x59 (x24 x153 x76)) (x14 (x24 x1 x1))) (let ((x12 (= x134 x76)) (x87 (= x96 x1)) (x77 (= x54 x146)) (x104 (= x76 x125)) (x81 (= x59 x1)) (x10 (= x115 x1)) (x133 (= x130 x1)) (x32 (= x1 x45)) (x34 (= x76 x26)) (x135 (= x2 x76)) (x46 (= x130 x76)) (x36 (= x68 x14)) (x137 (= x83 x68)) (x56 (= x134 x68)) (x79 (= x21 x76)) (x128 (= x153 x83)) (x121 (= x125 x146)) (x19 (= x20 x1)) (x28 (= x147 x153)) (x13 (= x1 x2)) (x97 (= x44 x1)) (x16 (= x68 x115)) (x47 (= x153 x143)) (x112 (= x115 x76)) (x37 (= x1 x14)) (x152 (= x153 x7)) (x25 (= x21 x1)) (x148 (= x146 x83)) (x94 (= x54 x76)) (x122 (= x54 x1)) (x41 (= x151 x153)) (x93 (= x76 x45)) (x138 (= x147 x146)) (x15 (= x30 x76)) (x127 (= x68 x45)) (x23 (= x7 x68)) (x126 (= x153 x44)) (x131 (= x151 x146)) (x105 (= x153 x45)) (x92 (= x149 x76)) (x51 (= x1 x30)) (x90 (= x1 x83)) (x9 (= x76 x59)) (x123 (= x76 x14)) (x119 (= x147 x1)) (x3 (= x30 x146)) (x141 (= x68 x109)) (x150 (= x107 x1)) (x69 (= x26 x1)) (x62 (= x43 x68)) (x142 (= x76 x83)) (x158 (= x20 x76)) (x111 (= x68 x8)) (x65 (= x109 x153)) (x154 (= x68 x143)) (x5 (= x26 x146)) (x33 (= x68 x59)) (x159 (= x76 x107)) (x140 (= x153 x2)) (x39 (= x76 x96)) (x116 (= x76 x44)) (x57 (= x68 x125)) (x108 (= x43 x153)) (x132 (= x146 x8)) (x80 (= x146 x2)) (x144 (= x115 x146)) (x58 (= x153 x20)) (x89 (= x151 x1)) (x49 (= x146 x45)) (x106 (= x153 x21)) (x50 (= x107 x68)) (x129 (= x1 x149)) (x102 (= x109 x1)) (x74 (= x43 x146)) (x84 (= x68 x26)) (x63 (= x43 x76)) (x110 (= x2 x68)) (x72 (= x153 x149)) (x6 (= x7 x76)) (x113 (= x149 x68)) (x40 (= x130 x146)) (x145 (= x20 x68)) (x139 (= x146 x143)) (x67 (= x44 x146)) (x117 (= x68 x44)) (x155 (= x134 x146)) (x22 (= x143 x76)) (x17 (= x146 x14)) (x95 (= x96 x146)) (x61 (= x8 x1)) (x156 (= x153 x130)) (x100 (= x134 x153)) (x103 (= x153 x26)) (x35 (= x107 x153)) (x18 (= x153 x30)) (x66 (= x146 x20)) (x48 (= x68 x30)) (x52 (= x151 x68)) (x38 (= x1 x43)) (x53 (= x8 x76)) (x82 (= x96 x68)) (x29 (= x1 x134)) (x114 (= x146 x107)) (x101 (= x1 x143)) (x136 (= x146 x7)) (x86 (= x21 x68)) (x64 (= x146 x149)) (x78 (= x153 x59)) (x60 (= x68 x130)) (x91 (= x147 x76)) (x118 (= x1 x7)) (x124 (= x153 x14)) (x4 (= x96 x153)) (x42 (= x153 x125)) (x27 (= x125 x1)) (x88 (= x109 x146)) (x11 (= x146 x21)) (x98 (= x76 x109)) (x157 (= x59 x146)) (x99 (= x68 x54)) (x75 (= x8 x153)) (x120 (= x68 x147)) (x85 (= x76 x151)) (x31 (= x115 x153)) (x73 (= x54 x153))) (and (and (or (or (and x124 x124) (or (or (or (and x73 x126) (and x105 x103)) (and x72 x47)) (and x41 x35))) (or (or (or (or (or (or (and x58 x42) (or (and x156 x18) (and x100 x100))) (and x31 x108)) (and x126 x73)) (or (or (or (or (and x4 x4) (and x18 x156)) (and x140 x75)) (and x28 x65)) (and x105 x103))) (or (or (or (and x128 x128) (or (and x140 x75) (and x58 x42))) (and x152 x78)) (and x72 x47))) (or (and x41 x35) (or (and x106 x106) (or (or (and x108 x31) (and x28 x65)) (and x78 x152)))))) (and (and (or (or (or (or (or (or (and x120 x141) (and x16 x62)) (and x33 x23)) (and x86 x86)) (and x52 x50)) (or (or (or (or (or (and x145 x57) (or (and x56 x56) (and x60 x48))) (and x16 x62)) (and x117 x99)) (or (or (or (or (and x48 x60) (and x82 x82)) (and x111 x110)) (and x141 x120)) (and x127 x84))) (or (or (and x33 x23) (or (or (and x111 x110) (and x145 x57)) (and x137 x137))) (and x154 x113)))) (or (and x36 x36) (or (and x52 x50) (or (or (and x99 x117) (and x127 x84)) (and x154 x113))))) (or (or (and x17 x17) (or (and x131 x114) (or (or (and x5 x49) (and x67 x77)) (and x139 x64)))) (or (or (and x131 x114) (or (and x11 x11) (or (and x157 x136) (or (and x144 x74) (and x88 x138))))) (or (or (or (and x5 x49) (or (or (and x80 x132) (or (and x3 x40) (and x95 x95))) (and x138 x88))) (or (and x67 x77) (or (and x74 x144) (or (or (and x3 x40) (and x155 x155)) (and x121 x66))))) (or (or (or (and x148 x148) (or (and x80 x132) (and x121 x66))) (and x136 x157)) (and x139 x64)))))) (or (or (or (and x85 x159) (or (and x79 x79) (or (or (and x112 x63) (and x98 x91)) (and x9 x6)))) (or (or (or (or (or (or (and x46 x15) (and x39 x39)) (and x135 x53)) (and x98 x91)) (and x93 x34)) (or (and x116 x94) (or (and x63 x112) (or (and x158 x104) (or (and x12 x12) (and x46 x15)))))) (or (and x22 x92) (or (or (or (and x158 x104) (and x53 x135)) (and x142 x142)) (and x6 x9))))) (or (and x123 x123) (or (or (or (and x34 x93) (and x94 x116)) (and x22 x92)) (and x85 x159)))))) (or (or (or (or (or (or (or (or (and x51 x133) (and x29 x29)) (and x27 x19)) (and x38 x10)) (and x122 x97)) (or (and x69 x32) (or (and x119 x102) (or (or (and x51 x133) (and x87 x87)) (and x13 x61))))) (or (and x129 x101) (or (and x118 x81) (or (or (and x13 x61) (and x27 x19)) (and x90 x90))))) (or (or (or (and x118 x81) (or (and x102 x119) (and x10 x38))) (and x25 x25)) (and x89 x150))) (or (and x37 x37) (or (and x89 x150) (or (or (and x32 x69) (and x97 x122)) (and x101 x129)))))))))
(assert (or (and (and (and (not (= x76 (x24 x1 x76))) (and (not (= (x24 x1 x146) x146)) (not (= x68 (x24 x1 x68))))) (not (= x153 (x24 x1 x153)))) (not (= (x24 x1 x1) x1))) (or (and (not (= (x24 x153 x1) x1)) (and (and (not (= (x24 x153 x76) x76)) (and (not (= x146 (x24 x153 x146))) (not (= x68 (x24 x153 x68))))) (not (= x153 (x24 x153 x153))))) (or (and (not (= (x24 x76 x1) x1)) (and (and (not (= (x24 x76 x76) x76)) (and (not (= x146 (x24 x76 x146))) (not (= x68 (x24 x76 x68))))) (not (= x153 (x24 x76 x153))))) (or (and (not (= (x24 x68 x1) x1)) (and (and (and (not (= (x24 x68 x68) x68)) (not (= x146 (x24 x68 x146)))) (not (= x76 (x24 x68 x76)))) (not (= x153 (x24 x68 x153))))) (and (not (= (x24 x146 x1) x1)) (and (not (= (x24 x146 x153) x153)) (and (and (not (= (x24 x146 x146) x146)) (not (= x68 (x24 x146 x68)))) (not (= (x24 x146 x76) x76))))))))))
(assert (or (or (and (not (= (x24 x1 x153) x1)) (and (and (not (= (x24 x76 x153) x76)) (and (not (= (x24 x146 x153) x146)) (not (= (x24 x68 x153) x68)))) (not (= (x24 x153 x153) x153)))) (or (or (and (and (not (= (x24 x153 x68) x153)) (and (not (= x76 (x24 x76 x68))) (and (not (= x68 (x24 x68 x68))) (not (= (x24 x146 x68) x146))))) (not (= x1 (x24 x1 x68)))) (and (not (= (x24 x1 x146) x1)) (and (not (= x153 (x24 x153 x146))) (and (not (= (x24 x76 x146) x76)) (and (not (= x68 (x24 x68 x146))) (not (= (x24 x146 x146) x146))))))) (and (and (and (not (= x76 (x24 x76 x76))) (and (not (= x146 (x24 x146 x76))) (not (= x68 (x24 x68 x76))))) (not (= (x24 x153 x76) x153))) (not (= (x24 x1 x76) x1))))) (and (and (not (= (x24 x153 x1) x153)) (and (and (not (= (x24 x68 x1) x68)) (not (= x146 (x24 x146 x1)))) (not (= x76 (x24 x76 x1))))) (not (= (x24 x1 x1) x1)))))
(assert (let ((x155 (x24 x153 x153)) (x132 (x24 x1 x1)) (x40 (x24 x76 x76)) (x3 (x24 x68 x68)) (x95 (x24 x146 x146))) (or (and (not (= x1 x132)) (and (not (= x155 x1)) (and (and (not (= x95 x1)) (not (= x1 x3))) (not (= x1 x40))))) (or (or (and (not (= x76 x132)) (and (and (and (not (= x76 x95)) (not (= x3 x76))) (not (= x76 x40))) (not (= x76 x155)))) (or (and (not (= x132 x68)) (and (and (not (= x40 x68)) (and (not (= x3 x68)) (not (= x68 x95)))) (not (= x155 x68)))) (and (and (and (not (= x146 x40)) (and (not (= x146 x95)) (not (= x3 x146)))) (not (= x155 x146))) (not (= x146 x132))))) (and (not (= x153 x132)) (and (not (= x155 x153)) (and (not (= x153 x40)) (and (not (= x95 x153)) (not (= x153 x3))))))))))
(assert (not (and (and (= x68 (x24 x1 x153)) (and (= x76 (x24 x1 x76)) (and (= (x24 x1 x68) x153) (and (= (x24 x1 x146) x1) (and (and (and (and (and (and (and (and (and (= (x24 x76 x68) x146) (and (= x76 (x24 x76 x146)) (and (= (x24 x68 x1) x68) (and (and (= (x24 x68 x76) x1) (and (= (x24 x68 x68) x76) (and (= x146 (x24 x68 x146)) (and (= (x24 x146 x1) x1) (and (and (and (= x68 (x24 x146 x68)) (= (x24 x146 x146) x153)) (= (x24 x146 x76) x146)) (= x76 (x24 x146 x153))))))) (= (x24 x68 x153) x153))))) (= (x24 x76 x76) x68)) (= x1 (x24 x76 x153))) (= (x24 x76 x1) x153)) (= x68 (x24 x153 x146))) (= (x24 x153 x68) x1)) (= x153 (x24 x153 x76))) (= (x24 x153 x153) x146)) (= (x24 x153 x1) x76)))))) (= (x24 x1 x1) x146))))
(assert (and (and (not (= x1 x76)) (and (not (= x76 x153)) (and (not (= x68 x1)) (and (and (and (not (= x1 x146)) (and (and (not (= x68 x146)) (not (= x146 x76))) (not (= x153 x146)))) (not (= x76 x68))) (not (= x153 x68)))))) (not (= x1 x153))))
(assert (let ((x95 (x24 x146 x146)) (x157 (x24 x153 x76)) (x148 (x24 x76 x76)) (x17 (x24 x1 x1)) (x144 (x24 x153 x68)) (x74 (x24 x68 x153)) (x155 (x24 x68 x68)) (x3 (x24 x68 x146)) (x136 (x24 x76 x153)) (x132 (x24 x76 x146)) (x11 (x24 x153 x153)) (x5 (x24 x146 x1)) (x121 (x24 x76 x68)) (x114 (x24 x153 x1)) (x138 (x24 x153 x146)) (x77 (x24 x1 x68)) (x131 (x24 x1 x153)) (x88 (x24 x146 x153)) (x40 (x24 x146 x68)) (x66 (x24 x68 x76)) (x67 (x24 x68 x1)) (x49 (x24 x1 x146)) (x139 (x24 x76 x1)) (x64 (x24 x1 x76)) (x80 (x24 x146 x76))) (and (and (and (or (or (or (not (= x148 x148)) (or (not (= x80 x132)) (not (= x121 x66)))) (not (= x136 x157))) (not (= x64 x139))) (and (or (not (= x49 x5)) (or (not (= x88 x138)) (or (or (not (= x95 x95)) (not (= x3 x40))) (not (= x80 x132))))) (or (or (not (= x74 x144)) (or (or (not (= x155 x155)) (not (= x3 x40))) (not (= x66 x121)))) (not (= x77 x67))))) (or (or (or (or (not (= x88 x138)) (not (= x144 x74))) (not (= x157 x136))) (not (= x11 x11))) (not (= x131 x114)))) (or (not (= x17 x17)) (or (or (not (= x64 x139)) (or (not (= x67 x77)) (not (= x49 x5)))) (not (= x131 x114)))))))
(assert (let ((x132 (x24 x1 x146)) (x88 (x24 x146 x76)) (x64 (x24 x146 x1)) (x148 (x24 x153 x68)) (x157 (x24 x153 x76)) (x136 (x24 x1 x76)) (x121 (x24 x68 x68)) (x138 (x24 x1 x68)) (x67 (x24 x1 x153)) (x114 (x24 x153 x1)) (x95 (x24 x146 x146)) (x131 (x24 x76 x1)) (x77 (x24 x153 x153)) (x40 (x24 x76 x146)) (x74 (x24 x76 x76)) (x66 (x24 x76 x68)) (x144 (x24 x68 x76)) (x155 (x24 x153 x146)) (x5 (x24 x76 x153)) (x17 (x24 x1 x1)) (x3 (x24 x68 x146)) (x80 (x24 x146 x68)) (x49 (x24 x68 x153)) (x139 (x24 x68 x1)) (x11 (x24 x146 x153))) (and (and (and (not (= x114 x17)) (and (not (= x17 x131)) (and (not (= x131 x114)) (and (not (= x17 x139)) (and (not (= x114 x139)) (and (not (= x131 x139)) (and (not (= x64 x17)) (and (not (= x64 x114)) (and (not (= x64 x139)) (not (= x64 x131))))))))))) (and (and (and (and (not (= x136 x74)) (and (and (not (= x136 x144)) (and (and (and (not (= x136 x88)) (and (not (= x157 x88)) (and (not (= x88 x144)) (not (= x88 x74))))) (not (= x144 x74))) (not (= x144 x157)))) (not (= x74 x157)))) (not (= x136 x157))) (and (and (not (= x155 x132)) (and (not (= x40 x132)) (and (and (not (= x132 x3)) (and (and (not (= x3 x40)) (and (and (and (not (= x95 x3)) (not (= x40 x95))) (not (= x95 x155))) (not (= x95 x132)))) (not (= x155 x3)))) (not (= x40 x155))))) (and (not (= x148 x138)) (and (not (= x66 x138)) (and (and (not (= x121 x138)) (and (and (not (= x121 x66)) (and (and (and (not (= x80 x66)) (not (= x121 x80))) (not (= x80 x148))) (not (= x138 x80)))) (not (= x121 x148)))) (not (= x148 x66))))))) (and (not (= x67 x77)) (and (not (= x67 x5)) (and (not (= x77 x5)) (and (and (not (= x77 x49)) (and (not (= x5 x49)) (and (not (= x11 x67)) (and (and (not (= x5 x11)) (not (= x11 x49))) (not (= x77 x11)))))) (not (= x49 x67)))))))) (and (and (and (and (and (not (= x64 x11)) (and (not (= x88 x64)) (and (and (and (and (not (= x88 x80)) (and (not (= x95 x64)) (and (and (not (= x80 x95)) (not (= x88 x95))) (not (= x95 x11))))) (not (= x80 x11))) (not (= x64 x80))) (not (= x88 x11))))) (and (and (not (= x139 x144)) (and (and (and (and (and (and (and (not (= x3 x144)) (not (= x121 x3))) (not (= x49 x3))) (not (= x3 x139))) (not (= x144 x121))) (not (= x121 x49))) (not (= x139 x121))) (not (= x144 x49)))) (not (= x49 x139)))) (and (not (= x131 x5)) (and (and (not (= x5 x74)) (and (and (and (not (= x74 x66)) (and (and (and (not (= x66 x40)) (not (= x74 x40))) (not (= x40 x5))) (not (= x40 x131)))) (not (= x5 x66))) (not (= x66 x131)))) (not (= x131 x74))))) (and (and (and (and (not (= x148 x114)) (and (not (= x148 x77)) (and (and (and (and (not (= x155 x148)) (not (= x155 x157))) (not (= x155 x77))) (not (= x155 x114))) (not (= x157 x148))))) (not (= x157 x77))) (not (= x157 x114))) (not (= x77 x114)))) (and (and (and (not (= x136 x67)) (and (not (= x17 x138)) (and (and (not (= x138 x136)) (and (not (= x132 x17)) (and (and (not (= x132 x136)) (not (= x132 x138))) (not (= x132 x67))))) (not (= x138 x67))))) (not (= x136 x17))) (not (= x17 x67)))))))
(assert (and (= x1 (x24 x68 x76)) (and (and (= (x24 x68 x68) x76) (= (x24 x76 x68) x146)) (= (x24 x76 x1) x153))))
(assert (or (or (or (and (not (= x76 (x24 (x24 x1 x76) x1))) (and (not (= (x24 (x24 x153 x76) x153) x76)) (and (and (not (= x76 (x24 (x24 x68 x76) x68))) (not (= (x24 (x24 x146 x76) x146) x76))) (not (= (x24 (x24 x76 x76) x76) x76))))) (or (and (and (and (not (= (x24 (x24 x76 x146) x76) x146)) (and (not (= x146 (x24 (x24 x68 x146) x68))) (not (= (x24 (x24 x146 x146) x146) x146)))) (not (= x146 (x24 (x24 x153 x146) x153)))) (not (= x146 (x24 (x24 x1 x146) x1)))) (and (and (not (= (x24 (x24 x153 x68) x153) x68)) (and (and (not (= x68 (x24 (x24 x146 x68) x146))) (not (= x68 (x24 (x24 x68 x68) x68)))) (not (= (x24 (x24 x76 x68) x76) x68)))) (not (= (x24 (x24 x1 x68) x1) x68))))) (and (not (= (x24 (x24 x1 x153) x1) x153)) (and (and (and (not (= x153 (x24 (x24 x68 x153) x68))) (not (= x153 (x24 (x24 x146 x153) x146)))) (not (= x153 (x24 (x24 x76 x153) x76)))) (not (= x153 (x24 (x24 x153 x153) x153)))))) (and (and (not (= (x24 (x24 x153 x1) x153) x1)) (and (and (not (= x1 (x24 (x24 x146 x1) x146))) (not (= x1 (x24 (x24 x68 x1) x68)))) (not (= x1 (x24 (x24 x76 x1) x76))))) (not (= x1 (x24 (x24 x1 x1) x1))))))
(check-sat)
(exit)
